0 720 2767
1 8845 1811
2 9997 4443
3 8951 7667
4 3512 1852
5 3904 9696
6 670 4652
7 7701 2762
8 7930 8170
9 464 8254
10 4180 9760
11 5370 7511
12 772 2676
13 6186 2369
14 4178 6136
15 9279 24
16 9324 1565
17 8101 4304
18 1907 4308
19 3352 8494
20 5938 6789
21 210 7763
22 9371 2808
23 5794 1705
24 2032 8689
25 1260 902
26 9307 8457
27 70 1166
28 2219 9287
29 5910 133
30 7387 1805
31 2662 3873
32 9665 3775
33 689 5997
34 400 5198
35 5293 9499
36 7402 5411
37 8517 4753
38 677 7143
39 6913 596
40 7848 815
41 9396 34
42 2931 2341
43 1314 9817
44 1017 5809
45 4188 4677
46 5899 1926
47 6394 5463
48 209 9817
49 899 2929
